(set-logic QF_NRA)
(set-info :source |Benchmarks generated from hycomp (https://es-static.fbk.eu/tools/hycomp/). BMC instances of non-linear hybrid automata taken from: Alessandro Cimatti, Sergio Mover, Stefano Tonetta, A quantifier-free SMT encoding of non-linear hybrid automata, FMCAD 2012 and Alessandro Cimatti, Sergio Mover, Stefano Tonetta, Quantier-free encoding of invariants for Hybrid Systems, Formal Methods in System Design. This instance solves a BMC problem of depth 1 and uses the quantifier free encoding with equivalences and lemmas encoding. Contacts: Sergio Mover (mover@fbk.eu), Stefano Tonetta (tonettas@fbk.eu), Alessandro Cimatti (cimatti@fbk.eu).|)
(set-info :smt-lib-version 2.0)
(set-info :category "industrial")
(set-info :status unsat)
;; MathSAT API call trace
;; generated on Mon Mar 19 10:39:41 2012
(declare-fun b.y__AT1 () Real)
(declare-fun b.x__AT0 () Real)
(declare-fun b.speed_y__AT0 () Real)
(declare-fun b.event_is_timed__AT0 () Bool)
(declare-fun b.speed_x__AT0 () Real)
(declare-fun b.event_is_timed__AT1 () Bool)
(declare-fun b.time__AT0 () Real)
(declare-fun b.speed_y__AT1 () Real)
(declare-fun b.y__AT0 () Real)
(declare-fun b.counter.0__AT0 () Bool)
(declare-fun b.counter.1__AT0 () Bool)
(declare-fun b.time__AT1 () Real)
(declare-fun b.bool_atom__AT0 () Bool)
(declare-fun b.counter.2__AT0 () Bool)
(declare-fun b.delta__AT1 () Real)
(declare-fun b.EVENT.0__AT1 () Bool)
(declare-fun b.delta__AT0 () Real)
(declare-fun b.speed_x__AT1 () Real)
(declare-fun b.EVENT.0__AT0 () Bool)
(declare-fun b.x__AT1 () Real)
(declare-fun b.counter.0__AT1 () Bool)
(declare-fun b.EVENT.1__AT0 () Bool)
(declare-fun b.counter.1__AT1 () Bool)
(declare-fun b.counter.2__AT1 () Bool)
(declare-fun b.counter.3__AT1 () Bool)
(declare-fun b.bool_atom__AT1 () Bool)
(declare-fun b.EVENT.1__AT1 () Bool)
(declare-fun b.speed_loss__AT0 () Real)
(declare-fun b.counter.3__AT0 () Bool)
(assert (let ((.def_376 (* (- 1.0) b.speed_x__AT1)))
(let ((.def_377 (* b.speed_x__AT1 .def_376)))
(let ((.def_378 (* (- 1.0) .def_377)))
(let ((.def_406 (* 2.0 .def_378)))
(let ((.def_407 (* b.delta__AT1 .def_406)))
(let ((.def_408 (* 5.0 .def_407)))
(let ((.def_316 (* (- 1.0) b.x__AT1)))
(let ((.def_389 (* b.speed_x__AT1 .def_316)))
(let ((.def_411 (* (- 5.0) .def_389)))
(let ((.def_417 (+ .def_411 .def_408)))
(let ((.def_384 (* b.x__AT1 .def_376)))
(let ((.def_409 (* (- 5.0) .def_384)))
(let ((.def_418 (+ .def_409 .def_417)))
(let ((.def_413 (* (- 49.0) b.delta__AT1)))
(let ((.def_419 (+ .def_413 .def_418)))
(let ((.def_415 (* 5.0 b.speed_y__AT1)))
(let ((.def_420 (+ .def_415 .def_419)))
(let ((.def_439 (<= .def_420 0.0 )))
(let ((.def_440 (not .def_439)))
(let ((.def_390 (* (- 1.0) .def_389)))
(let ((.def_385 (* (- 1.0) .def_384)))
(let ((.def_423 (+ .def_385 .def_390)))
(let ((.def_424 (+ b.speed_y__AT1 .def_423)))
(let ((.def_437 (<= .def_424 0.0 )))
(let ((.def_462 (or .def_437 .def_440)))
(let ((.def_425 (<= 0.0 .def_424)))
(let ((.def_426 (not .def_425)))
(let ((.def_421 (<= 0.0 .def_420)))
(let ((.def_461 (or .def_421 .def_426)))
(let ((.def_463 (and .def_461 .def_462)))
(let ((.def_460 (<= (- (/ 49 10)) .def_377)))
(let ((.def_464 (or .def_460 .def_463)))
(let ((.def_422 (not .def_421)))
(let ((.def_457 (or .def_422 .def_425)))
(let ((.def_438 (not .def_437)))
(let ((.def_456 (or .def_438 .def_439)))
(let ((.def_458 (and .def_456 .def_457)))
(let ((.def_455 (<= .def_377 (- (/ 49 10)))))
(let ((.def_459 (or .def_455 .def_458)))
(let ((.def_465 (and .def_459 .def_464)))
(let ((.def_452 (and .def_437 .def_439)))
(let ((.def_451 (and .def_421 .def_425)))
(let ((.def_453 (or .def_451 .def_452)))
(let ((.def_391 (* b.delta__AT1 .def_390)))
(let ((.def_392 (* 10.0 .def_391)))
(let ((.def_386 (* b.delta__AT1 .def_385)))
(let ((.def_387 (* 10.0 .def_386)))
(let ((.def_398 (+ .def_387 .def_392)))
(let ((.def_375 (* b.delta__AT1 b.delta__AT1)))
(let ((.def_379 (* .def_375 .def_378)))
(let ((.def_380 (* 10.0 .def_379)))
(let ((.def_399 (+ .def_380 .def_398)))
(let ((.def_382 (* (- 49.0) .def_375)))
(let ((.def_400 (+ .def_382 .def_399)))
(let ((.def_373 (* b.speed_y__AT1 b.delta__AT1)))
(let ((.def_374 (* 10.0 .def_373)))
(let ((.def_401 (+ .def_374 .def_400)))
(let ((.def_362 (* b.x__AT1 .def_316)))
(let ((.def_394 (* (- 10.0) .def_362)))
(let ((.def_402 (+ .def_394 .def_401)))
(let ((.def_396 (* 10.0 b.y__AT1)))
(let ((.def_403 (+ .def_396 .def_402)))
(let ((.def_431 (<= .def_403 0.0 )))
(let ((.def_445 (not .def_431)))
(let ((.def_429 (<= b.y__AT1 .def_362)))
(let ((.def_446 (or .def_429 .def_445)))
(let ((.def_363 (<= .def_362 b.y__AT1)))
(let ((.def_443 (not .def_363)))
(let ((.def_404 (<= 0.0 .def_403)))
(let ((.def_444 (or .def_404 .def_443)))
(let ((.def_447 (and .def_444 .def_446)))
(let ((.def_441 (or .def_438 .def_440)))
(let ((.def_442 (not .def_441)))
(let ((.def_448 (or .def_442 .def_447)))
(let ((.def_433 (not .def_404)))
(let ((.def_434 (or .def_363 .def_433)))
(let ((.def_430 (not .def_429)))
(let ((.def_432 (or .def_430 .def_431)))
(let ((.def_435 (and .def_432 .def_434)))
(let ((.def_427 (or .def_422 .def_426)))
(let ((.def_428 (not .def_427)))
(let ((.def_436 (or .def_428 .def_435)))
(let ((.def_449 (and .def_436 .def_448)))
(let ((.def_405 (and .def_363 .def_404)))
(let ((.def_450 (and .def_405 .def_449)))
(let ((.def_454 (and .def_450 .def_453)))
(let ((.def_466 (and .def_454 .def_465)))
(let ((.def_66 (<= b.speed_loss__AT0 (/ 1 2))))
(let ((.def_63 (<= (/ 1 10) b.speed_loss__AT0)))
(let ((.def_67 (and .def_63 .def_66)))
(let ((.def_467 (and .def_67 .def_466)))
(let ((.def_35 (not b.counter.0__AT0)))
(let ((.def_367 (or b.counter.1__AT0 .def_35)))
(let ((.def_38 (not b.counter.2__AT0)))
(let ((.def_368 (or .def_38 .def_367)))
(let ((.def_369 (or b.counter.3__AT0 .def_368)))
(let ((.def_364 (and .def_67 .def_363)))
(let ((.def_359 (not b.EVENT.0__AT1)))
(let ((.def_357 (not b.EVENT.1__AT1)))
(let ((.def_360 (or .def_357 .def_359)))
(let ((.def_264 (not b.counter.1__AT1)))
(let ((.def_4 (not b.counter.0__AT1)))
(let ((.def_350 (or .def_4 .def_264)))
(let ((.def_354 (or b.counter.3__AT1 .def_350)))
(let ((.def_351 (or b.counter.2__AT1 .def_350)))
(let ((.def_8 (not b.counter.2__AT1)))
(let ((.def_349 (or .def_4 .def_8)))
(let ((.def_352 (and .def_349 .def_351)))
(let ((.def_281 (not b.counter.3__AT1)))
(let ((.def_353 (or .def_281 .def_352)))
(let ((.def_355 (and .def_353 .def_354)))
(let ((.def_361 (and .def_355 .def_360)))
(let ((.def_365 (and .def_361 .def_364)))
(let ((.def_344 (<= 0.0 b.delta__AT0)))
(let ((.def_54 (not b.EVENT.0__AT0)))
(let ((.def_52 (not b.EVENT.1__AT0)))
(let ((.def_176 (and .def_52 .def_54)))
(let ((.def_178 (not .def_176)))
(let ((.def_345 (or .def_178 .def_344)))
(let ((.def_346 (or b.EVENT.1__AT0 .def_345)))
(let ((.def_217 (= b.bool_atom__AT0 b.bool_atom__AT1)))
(let ((.def_212 (= b.counter.0__AT1 b.counter.0__AT0)))
(let ((.def_210 (= b.counter.1__AT1 b.counter.1__AT0)))
(let ((.def_208 (= b.counter.2__AT1 b.counter.2__AT0)))
(let ((.def_207 (= b.counter.3__AT1 b.counter.3__AT0)))
(let ((.def_209 (and .def_207 .def_208)))
(let ((.def_211 (and .def_209 .def_210)))
(let ((.def_213 (and .def_211 .def_212)))
(let ((.def_340 (and .def_213 .def_217)))
(let ((.def_341 (or .def_178 .def_340)))
(let ((.def_342 (or b.EVENT.1__AT0 .def_341)))
(let ((.def_329 (* (- 10.0) b.y__AT1)))
(let ((.def_75 (* b.delta__AT0 b.delta__AT0)))
(let ((.def_84 (* (- 49.0) .def_75)))
(let ((.def_332 (+ .def_84 .def_329)))
(let ((.def_73 (* b.speed_y__AT0 b.delta__AT0)))
(let ((.def_74 (* 10.0 .def_73)))
(let ((.def_333 (+ .def_74 .def_332)))
(let ((.def_99 (* 10.0 b.y__AT0)))
(let ((.def_334 (+ .def_99 .def_333)))
(let ((.def_335 (= .def_334 0.0 )))
(let ((.def_323 (* (- 5.0) b.speed_y__AT1)))
(let ((.def_118 (* (- 49.0) b.delta__AT0)))
(let ((.def_324 (+ .def_118 .def_323)))
(let ((.def_120 (* 5.0 b.speed_y__AT0)))
(let ((.def_325 (+ .def_120 .def_324)))
(let ((.def_326 (= .def_325 0.0 )))
(let ((.def_315 (* b.speed_x__AT0 b.delta__AT0)))
(let ((.def_319 (+ .def_316 .def_315)))
(let ((.def_320 (+ b.x__AT0 .def_319)))
(let ((.def_321 (= .def_320 0.0 )))
(let ((.def_202 (= b.speed_x__AT0 b.speed_x__AT1)))
(let ((.def_322 (and .def_202 .def_321)))
(let ((.def_327 (and .def_322 .def_326)))
(let ((.def_336 (and .def_327 .def_335)))
(let ((.def_337 (or .def_178 .def_336)))
(let ((.def_199 (= b.y__AT0 b.y__AT1)))
(let ((.def_196 (= b.x__AT0 b.x__AT1)))
(let ((.def_309 (and .def_196 .def_199)))
(let ((.def_310 (and .def_202 .def_309)))
(let ((.def_205 (= b.speed_y__AT0 b.speed_y__AT1)))
(let ((.def_311 (and .def_205 .def_310)))
(let ((.def_306 (= b.delta__AT0 0.0 )))
(let ((.def_307 (and .def_176 .def_306)))
(let ((.def_308 (not .def_307)))
(let ((.def_312 (or .def_308 .def_311)))
(let ((.def_313 (or b.EVENT.1__AT0 .def_312)))
(let ((.def_298 (and .def_202 .def_205)))
(let ((.def_299 (and .def_213 .def_298)))
(let ((.def_300 (or b.bool_atom__AT0 .def_299)))
(let ((.def_273 (or .def_4 b.counter.0__AT0)))
(let ((.def_272 (or b.counter.0__AT1 .def_35)))
(let ((.def_274 (and .def_272 .def_273)))
(let ((.def_275 (and .def_264 .def_274)))
(let ((.def_276 (or b.counter.1__AT0 .def_275)))
(let ((.def_33 (not b.counter.1__AT0)))
(let ((.def_271 (or b.counter.1__AT1 .def_33)))
(let ((.def_277 (and .def_271 .def_276)))
(let ((.def_289 (and .def_8 .def_277)))
(let ((.def_290 (or b.counter.2__AT0 .def_289)))
(let ((.def_284 (and .def_35 .def_264)))
(let ((.def_285 (or b.counter.1__AT0 .def_284)))
(let ((.def_286 (and .def_271 .def_285)))
(let ((.def_287 (and b.counter.2__AT1 .def_286)))
(let ((.def_288 (or .def_38 .def_287)))
(let ((.def_291 (and .def_288 .def_290)))
(let ((.def_292 (and b.counter.3__AT1 .def_291)))
(let ((.def_293 (or b.counter.3__AT0 .def_292)))
(let ((.def_278 (and b.counter.2__AT1 .def_277)))
(let ((.def_279 (or b.counter.2__AT0 .def_278)))
(let ((.def_267 (or b.counter.1__AT1 b.counter.1__AT0)))
(let ((.def_265 (and b.counter.0__AT1 .def_264)))
(let ((.def_266 (or .def_33 .def_265)))
(let ((.def_268 (and .def_266 .def_267)))
(let ((.def_269 (and .def_8 .def_268)))
(let ((.def_270 (or .def_38 .def_269)))
(let ((.def_280 (and .def_270 .def_279)))
(let ((.def_282 (and .def_280 .def_281)))
(let ((.def_41 (not b.counter.3__AT0)))
(let ((.def_283 (or .def_41 .def_282)))
(let ((.def_294 (and .def_283 .def_293)))
(let ((.def_255 (* b.speed_y__AT0 b.speed_y__AT0)))
(let ((.def_254 (* b.speed_x__AT0 b.speed_x__AT0)))
(let ((.def_256 (+ .def_254 .def_255)))
(let ((.def_236 (* (- 1.0) b.speed_loss__AT0)))
(let ((.def_237 (+ 1.0 .def_236)))
(let ((.def_253 (* .def_237 .def_237)))
(let ((.def_257 (* .def_253 .def_256)))
(let ((.def_259 (* (- 1.0) .def_257)))
(let ((.def_250 (* b.speed_y__AT1 b.speed_y__AT1)))
(let ((.def_260 (+ .def_250 .def_259)))
(let ((.def_248 (* b.speed_x__AT1 b.speed_x__AT1)))
(let ((.def_261 (+ .def_248 .def_260)))
(let ((.def_262 (= .def_261 0.0 )))
(let ((.def_241 (* b.speed_y__AT0 .def_237)))
(let ((.def_224 (* (- 2.0) b.x__AT0)))
(let ((.def_225 (* (- 1.0) .def_224)))
(let ((.def_238 (* .def_225 .def_237)))
(let ((.def_239 (* b.speed_x__AT0 .def_238)))
(let ((.def_244 (+ .def_239 .def_241)))
(let ((.def_233 (* (- 2.0) b.x__AT1)))
(let ((.def_234 (* (- 1.0) .def_233)))
(let ((.def_235 (* b.speed_x__AT1 .def_234)))
(let ((.def_245 (+ .def_235 .def_244)))
(let ((.def_246 (+ b.speed_y__AT1 .def_245)))
(let ((.def_247 (= .def_246 0.0 )))
(let ((.def_263 (and .def_247 .def_262)))
(let ((.def_295 (and .def_263 .def_294)))
(let ((.def_232 (not b.bool_atom__AT0)))
(let ((.def_296 (or .def_232 .def_295)))
(let ((.def_226 (* b.speed_x__AT0 .def_225)))
(let ((.def_227 (+ b.speed_y__AT0 .def_226)))
(let ((.def_228 (<= 0.0 .def_227)))
(let ((.def_229 (not .def_228)))
(let ((.def_58 (* (- 1.0) b.x__AT0)))
(let ((.def_59 (* b.x__AT0 .def_58)))
(let ((.def_222 (= b.y__AT0 .def_59)))
(let ((.def_230 (and .def_222 .def_229)))
(let ((.def_231 (= b.bool_atom__AT0 .def_230)))
(let ((.def_297 (and .def_231 .def_296)))
(let ((.def_301 (and .def_297 .def_300)))
(let ((.def_302 (and .def_196 .def_301)))
(let ((.def_303 (and .def_199 .def_302)))
(let ((.def_304 (or .def_176 .def_303)))
(let ((.def_305 (or b.EVENT.1__AT0 .def_304)))
(let ((.def_314 (and .def_305 .def_313)))
(let ((.def_338 (and .def_314 .def_337)))
(let ((.def_183 (= b.time__AT0 b.time__AT1)))
(let ((.def_197 (and .def_183 .def_196)))
(let ((.def_200 (and .def_197 .def_199)))
(let ((.def_203 (and .def_200 .def_202)))
(let ((.def_206 (and .def_203 .def_205)))
(let ((.def_214 (and .def_206 .def_213)))
(let ((.def_218 (and .def_214 .def_217)))
(let ((.def_219 (or .def_52 .def_218)))
(let ((.def_186 (* (- 1.0) b.time__AT1)))
(let ((.def_189 (+ b.delta__AT0 .def_186)))
(let ((.def_190 (+ b.time__AT0 .def_189)))
(let ((.def_191 (= .def_190 0.0 )))
(let ((.def_192 (or .def_178 .def_191)))
(let ((.def_193 (or b.EVENT.1__AT0 .def_192)))
(let ((.def_184 (or .def_176 .def_183)))
(let ((.def_185 (or b.EVENT.1__AT0 .def_184)))
(let ((.def_194 (and .def_185 .def_193)))
(let ((.def_220 (and .def_194 .def_219)))
(let ((.def_180 (= .def_178 b.event_is_timed__AT1)))
(let ((.def_177 (= b.event_is_timed__AT0 .def_176)))
(let ((.def_181 (and .def_177 .def_180)))
(let ((.def_221 (and .def_181 .def_220)))
(let ((.def_339 (and .def_221 .def_338)))
(let ((.def_343 (and .def_339 .def_342)))
(let ((.def_347 (and .def_343 .def_346)))
(let ((.def_348 (and .def_52 .def_347)))
(let ((.def_366 (and .def_348 .def_365)))
(let ((.def_370 (and .def_366 .def_369)))
(let ((.def_76 (* (- 1.0) b.speed_x__AT0)))
(let ((.def_77 (* b.speed_x__AT0 .def_76)))
(let ((.def_78 (* (- 1.0) .def_77)))
(let ((.def_109 (* 2.0 .def_78)))
(let ((.def_110 (* b.delta__AT0 .def_109)))
(let ((.def_112 (* 5.0 .def_110)))
(let ((.def_91 (* b.speed_x__AT0 .def_58)))
(let ((.def_116 (* (- 5.0) .def_91)))
(let ((.def_122 (+ .def_116 .def_112)))
(let ((.def_86 (* b.x__AT0 .def_76)))
(let ((.def_114 (* (- 5.0) .def_86)))
(let ((.def_123 (+ .def_114 .def_122)))
(let ((.def_124 (+ .def_118 .def_123)))
(let ((.def_125 (+ .def_120 .def_124)))
(let ((.def_144 (<= .def_125 0.0 )))
(let ((.def_145 (not .def_144)))
(let ((.def_92 (* (- 1.0) .def_91)))
(let ((.def_87 (* (- 1.0) .def_86)))
(let ((.def_128 (+ .def_87 .def_92)))
(let ((.def_129 (+ b.speed_y__AT0 .def_128)))
(let ((.def_142 (<= .def_129 0.0 )))
(let ((.def_169 (or .def_142 .def_145)))
(let ((.def_130 (<= 0.0 .def_129)))
(let ((.def_131 (not .def_130)))
(let ((.def_126 (<= 0.0 .def_125)))
(let ((.def_168 (or .def_126 .def_131)))
(let ((.def_170 (and .def_168 .def_169)))
(let ((.def_167 (<= (- (/ 49 10)) .def_77)))
(let ((.def_171 (or .def_167 .def_170)))
(let ((.def_127 (not .def_126)))
(let ((.def_164 (or .def_127 .def_130)))
(let ((.def_143 (not .def_142)))
(let ((.def_163 (or .def_143 .def_144)))
(let ((.def_165 (and .def_163 .def_164)))
(let ((.def_162 (<= .def_77 (- (/ 49 10)))))
(let ((.def_166 (or .def_162 .def_165)))
(let ((.def_172 (and .def_166 .def_171)))
(let ((.def_157 (and .def_142 .def_144)))
(let ((.def_156 (and .def_126 .def_130)))
(let ((.def_158 (or .def_156 .def_157)))
(let ((.def_93 (* b.delta__AT0 .def_92)))
(let ((.def_94 (* 10.0 .def_93)))
(let ((.def_88 (* b.delta__AT0 .def_87)))
(let ((.def_89 (* 10.0 .def_88)))
(let ((.def_101 (+ .def_89 .def_94)))
(let ((.def_79 (* .def_75 .def_78)))
(let ((.def_80 (* 10.0 .def_79)))
(let ((.def_102 (+ .def_80 .def_101)))
(let ((.def_103 (+ .def_84 .def_102)))
(let ((.def_104 (+ .def_74 .def_103)))
(let ((.def_97 (* (- 10.0) .def_59)))
(let ((.def_105 (+ .def_97 .def_104)))
(let ((.def_106 (+ .def_99 .def_105)))
(let ((.def_136 (<= .def_106 0.0 )))
(let ((.def_150 (not .def_136)))
(let ((.def_134 (<= b.y__AT0 .def_59)))
(let ((.def_151 (or .def_134 .def_150)))
(let ((.def_60 (<= .def_59 b.y__AT0)))
(let ((.def_148 (not .def_60)))
(let ((.def_107 (<= 0.0 .def_106)))
(let ((.def_149 (or .def_107 .def_148)))
(let ((.def_152 (and .def_149 .def_151)))
(let ((.def_146 (or .def_143 .def_145)))
(let ((.def_147 (not .def_146)))
(let ((.def_153 (or .def_147 .def_152)))
(let ((.def_138 (not .def_107)))
(let ((.def_139 (or .def_60 .def_138)))
(let ((.def_135 (not .def_134)))
(let ((.def_137 (or .def_135 .def_136)))
(let ((.def_140 (and .def_137 .def_139)))
(let ((.def_132 (or .def_127 .def_131)))
(let ((.def_133 (not .def_132)))
(let ((.def_141 (or .def_133 .def_140)))
(let ((.def_154 (and .def_141 .def_153)))
(let ((.def_108 (and .def_60 .def_107)))
(let ((.def_155 (and .def_108 .def_154)))
(let ((.def_159 (and .def_155 .def_158)))
(let ((.def_173 (and .def_159 .def_172)))
(let ((.def_174 (and .def_67 .def_173)))
(let ((.def_68 (and .def_60 .def_67)))
(let ((.def_55 (or .def_52 .def_54)))
(let ((.def_45 (or .def_33 .def_35)))
(let ((.def_49 (or b.counter.3__AT0 .def_45)))
(let ((.def_46 (or b.counter.2__AT0 .def_45)))
(let ((.def_44 (or .def_35 .def_38)))
(let ((.def_47 (and .def_44 .def_46)))
(let ((.def_48 (or .def_41 .def_47)))
(let ((.def_50 (and .def_48 .def_49)))
(let ((.def_56 (and .def_50 .def_55)))
(let ((.def_69 (and .def_56 .def_68)))
(let ((.def_36 (and .def_33 .def_35)))
(let ((.def_39 (and .def_36 .def_38)))
(let ((.def_42 (and .def_39 .def_41)))
(let ((.def_30 (= b.speed_y__AT0 1.0 )))
(let ((.def_27 (= b.speed_x__AT0 1.0 )))
(let ((.def_23 (= b.y__AT0 10.0 )))
(let ((.def_19 (= b.x__AT0 0.0 )))
(let ((.def_15 (= b.time__AT0 0.0 )))
(let ((.def_17 (and .def_15 b.event_is_timed__AT0)))
(let ((.def_20 (and .def_17 .def_19)))
(let ((.def_24 (and .def_20 .def_23)))
(let ((.def_28 (and .def_24 .def_27)))
(let ((.def_31 (and .def_28 .def_30)))
(let ((.def_43 (and .def_31 .def_42)))
(let ((.def_70 (and .def_43 .def_69)))
(let ((.def_6 (or .def_4 b.counter.1__AT1)))
(let ((.def_9 (or .def_6 .def_8)))
(let ((.def_11 (or .def_9 b.counter.3__AT1)))
(let ((.def_12 (not .def_11)))
(let ((.def_71 (and .def_12 .def_70)))
(let ((.def_175 (and .def_71 .def_174)))
(let ((.def_371 (and .def_175 .def_370)))
(let ((.def_468 (and .def_371 .def_467)))
.def_468)))))))))))))))))))))))))))))))))))))))))))))))))))))))))))))))))))))))))))))))))))))))))))))))))))))))))))))))))))))))))))))))))))))))))))))))))))))))))))))))))))))))))))))))))))))))))))))))))))))))))))))))))))))))))))))))))))))))))))))))))))))))))))))))))))))))))))))))))))))))))))))))))))))))))))))))))))))))))))))))))))))))))))))))))))))))))))))))))))))))))))))))))))))))))))))))))))))
(check-sat)
(exit)
